webassembly/ejemplos_dzn/8/folder8_json_75.dzn
TERM = { '.', 's(2)', 's(4)', 'local_0', 'local_1', 's(1)', 's(0)', 's(3)', 'in_0'};
null = '.';
s = 8;
n = 8;
ndeps = 4;
max_registers_sz = 4;
NR = 1;
registers = [|'local_1', 's(2)'|];
dependencies = [|'i32.load16_s_1', 'call[function_index(0)]_4', |'call[function_index(0)]_4', 'i32.load8_u_6', |'i32.load_2', 'call[function_index(0)]_4', |'i32.load8_u_6', 'i32.store8_7'|];
GET_ENUM = { GET1, GET2, GET3, GET4, GET5};
SET_ENUM = { SET1, SET2, SET3, SET4, SET5};
TEE_ENUM = { TEE1, TEE2, TEE3, TEE4, TEE5};
N = 7;
OP = { 'i32.const_0', 'call[function_index(0)]_4', 'i32.load16_s_1', 'i32.load_2', 'i32.load8_u_6', 'i32.store8_7', 'local.get_0' };
in_ops = [0, 1, 1, 1, 1, 2, 0 ];
out_ops = [1, 1, 1, 1, 1, 0, 1 ];
in1 = ['.', 's(4)', 'local_0', 's(0)', 's(1)', 's(3)', '.' ];
in2 = ['.', '.', '.', '.', '.', 'in_0', '.' ];
in3 = ['.', '.', '.', '.', '.', '.', '.' ];
out1 = ['s(4)', 's(2)', 's(0)', 's(1)', 's(3)', '.', 'local_0' ];
out2 = ['.', '.', '.', '.', '.', '.', '.' ];
out3 = ['.', '.', '.', '.', '.', '.', '.' ];
comm = [false, false, false, false, false, false, false ];
gas = [1, 1, 1, 1, 1, 1, 1 ];
sz = [1, 1, 1, 1, 1, 1, 1 ];
stor = [false, true, false, false, false, true, false ];
lb = [ 1, 1, 1, 1, 1, 1, 1 ];
ub = [ 8, 8, 8, 8, 8, 8, 8 ];
startstack = [ 'in_0', null, null, null, null, null, null, null ];
endstack = [ null, null, null, null, null, null, null, null ];
