webassembly/ejemplos_results/8/folder8_json_75.txt
value = 8;
fgas = [1, 1, 1, 1, 1, 1, 1, 1];
fsize = [1, 1, 1, 1, 1, 1, 1, 1];
states = 
[|    in_0,  '.', '.', '.', '.', '.', '.',  '.'
 | local_0, in_0, '.', '.', '.', '.', '.',  '.'
 |  's(0)', in_0, '.', '.', '.', '.', '.', in_0
 |  's(1)', in_0, '.', '.', '.', '.', '.', in_0
 |  's(3)', in_0, '.', '.', '.', '.', '.', in_0
 |     '.',  '.', '.', '.', '.', '.', '.', in_0
 |  's(4)',  '.', '.', '.', '.', '.', '.',  '.'
 |  's(2)',  '.', '.', '.', '.', '.', '.',  '.'
 |     '.',  '.', '.', '.', '.', '.', '.',  '.'
 |];
register_states = 
[| local_1, '.', '.', '.', '.'
 | local_1, '.', '.', '.', '.'
 | local_1, '.', '.', '.', '.'
 | local_1, '.', '.', '.', '.'
 | local_1, '.', '.', '.', '.'
 | local_1, '.', '.', '.', '.'
 | local_1, '.', '.', '.', '.'
 | local_1, '.', '.', '.', '.'
 |  's(2)', '.', '.', '.', '.'
 |];
program = [O('local.get_0'), O('i32.load16_s_1'), O('i32.load_2'), O('i32.load8_u_6'), O('i32.store8_7'), O('i32.const_0'), O('call[function_index(0)]_4'), S(SET1)];
% time elapsed: 0.09 s
----------
==========
% time elapsed: 0.09 s
% [value > 7]
